c nIsolatedPIs 3
c maxPI 132
p cnf 799 2002
c gate 133 -51 -127 0
-51 -133 0
-127 -133 0
51 127 133 0
c gate 134 -49 127 0
-49 -134 0
127 -134 0
49 -127 134 0
c gate 135 -133 -134 0
-133 -135 0
-134 -135 0
133 134 135 0
c gate 136 126 -135 0
126 -136 0
-135 -136 0
-126 135 136 0
c gate 137 -50 127 0
-50 -137 0
127 -137 0
50 -127 137 0
c gate 138 -52 -127 0
-52 -138 0
-127 -138 0
52 127 138 0
c gate 139 -137 -138 0
-137 -139 0
-138 -139 0
137 138 139 0
c gate 140 -126 -139 0
-126 -140 0
-139 -140 0
126 139 140 0
c gate 141 -129 -140 0
-129 -141 0
-140 -141 0
129 140 141 0
c gate 142 -136 141 0
-136 -142 0
141 -142 0
136 -141 142 0
c gate 143 -41 127 0
-41 -143 0
127 -143 0
41 -127 143 0
c gate 144 -43 -127 0
-43 -144 0
-127 -144 0
43 127 144 0
c gate 145 126 -144 0
126 -145 0
-144 -145 0
-126 144 145 0
c gate 146 -143 145 0
-143 -146 0
145 -146 0
143 -145 146 0
c gate 147 -42 127 0
-42 -147 0
127 -147 0
42 -127 147 0
c gate 148 -44 -127 0
-44 -148 0
-127 -148 0
44 127 148 0
c gate 149 -126 -148 0
-126 -149 0
-148 -149 0
126 148 149 0
c gate 150 -147 149 0
-147 -150 0
149 -150 0
147 -149 150 0
c gate 151 -146 -150 0
-146 -151 0
-150 -151 0
146 150 151 0
c gate 152 129 -151 0
129 -152 0
-151 -152 0
-129 151 152 0
c gate 153 128 -152 0
128 -153 0
-152 -153 0
-128 152 153 0
c gate 154 -142 153 0
-142 -154 0
153 -154 0
142 -153 154 0
c gate 155 54 127 0
54 -155 0
127 -155 0
-54 -127 155 0
c gate 156 56 -127 0
56 -156 0
-127 -156 0
-56 127 156 0
c gate 157 -126 -156 0
-126 -157 0
-156 -157 0
126 156 157 0
c gate 158 -155 157 0
-155 -158 0
157 -158 0
155 -157 158 0
c gate 159 -55 -127 0
-55 -159 0
-127 -159 0
55 127 159 0
c gate 160 -53 127 0
-53 -160 0
127 -160 0
53 -127 160 0
c gate 161 -159 -160 0
-159 -161 0
-160 -161 0
159 160 161 0
c gate 162 126 -161 0
126 -162 0
-161 -162 0
-126 161 162 0
c gate 163 -129 -162 0
-129 -163 0
-162 -163 0
129 162 163 0
c gate 164 -158 163 0
-158 -164 0
163 -164 0
158 -163 164 0
c gate 165 48 -127 0
48 -165 0
-127 -165 0
-48 127 165 0
c gate 166 46 127 0
46 -166 0
127 -166 0
-46 -127 166 0
c gate 167 -165 -166 0
-165 -167 0
-166 -167 0
165 166 167 0
c gate 168 -126 -167 0
-126 -168 0
-167 -168 0
126 167 168 0
c gate 169 -47 -127 0
-47 -169 0
-127 -169 0
47 127 169 0
c gate 170 -45 127 0
-45 -170 0
127 -170 0
45 -127 170 0
c gate 171 -169 -170 0
-169 -171 0
-170 -171 0
169 170 171 0
c gate 172 126 171 0
126 -172 0
171 -172 0
-126 -171 172 0
c gate 173 -168 -172 0
-168 -173 0
-172 -173 0
168 172 173 0
c gate 174 129 -173 0
129 -174 0
-173 -174 0
-129 173 174 0
c gate 175 -128 -174 0
-128 -175 0
-174 -175 0
128 174 175 0
c gate 176 -164 175 0
-164 -176 0
175 -176 0
164 -175 176 0
c gate 177 -154 -176 0
-154 -177 0
-176 -177 0
154 176 177 0
c gate 178 -131 -177 0
-131 -178 0
-177 -178 0
131 177 178 0
c gate 179 -23 -127 0
-23 -179 0
-127 -179 0
23 127 179 0
c gate 180 -21 127 0
-21 -180 0
127 -180 0
21 -127 180 0
c gate 181 -179 -180 0
-179 -181 0
-180 -181 0
179 180 181 0
c gate 182 126 181 0
126 -182 0
181 -182 0
-126 -181 182 0
c gate 183 -22 127 0
-22 -183 0
127 -183 0
22 -127 183 0
c gate 184 -24 -127 0
-24 -184 0
-127 -184 0
24 127 184 0
c gate 185 -126 -184 0
-126 -185 0
-184 -185 0
126 184 185 0
c gate 186 -183 185 0
-183 -186 0
185 -186 0
183 -185 186 0
c gate 187 -129 -186 0
-129 -187 0
-186 -187 0
129 186 187 0
c gate 188 -182 187 0
-182 -188 0
187 -188 0
182 -187 188 0
c gate 189 -15 -127 0
-15 -189 0
-127 -189 0
15 127 189 0
c gate 190 -13 127 0
-13 -190 0
127 -190 0
13 -127 190 0
c gate 191 -189 -190 0
-189 -191 0
-190 -191 0
189 190 191 0
c gate 192 126 191 0
126 -192 0
191 -192 0
-126 -191 192 0
c gate 193 -14 127 0
-14 -193 0
127 -193 0
14 -127 193 0
c gate 194 -16 -127 0
-16 -194 0
-127 -194 0
16 127 194 0
c gate 195 -126 -194 0
-126 -195 0
-194 -195 0
126 194 195 0
c gate 196 -193 195 0
-193 -196 0
195 -196 0
193 -195 196 0
c gate 197 129 -196 0
129 -197 0
-196 -197 0
-129 196 197 0
c gate 198 -192 197 0
-192 -198 0
197 -198 0
192 -197 198 0
c gate 199 -188 -198 0
-188 -199 0
-198 -199 0
188 198 199 0
c gate 200 -128 -199 0
-128 -200 0
-199 -200 0
128 199 200 0
c gate 201 10 127 0
10 -201 0
127 -201 0
-10 -127 201 0
c gate 202 12 -127 0
12 -202 0
-127 -202 0
-12 127 202 0
c gate 203 -126 -202 0
-126 -203 0
-202 -203 0
126 202 203 0
c gate 204 -201 203 0
-201 -204 0
203 -204 0
201 -203 204 0
c gate 205 11 -127 0
11 -205 0
-127 -205 0
-11 127 205 0
c gate 206 9 127 0
9 -206 0
127 -206 0
-9 -127 206 0
c gate 207 126 -206 0
126 -207 0
-206 -207 0
-126 206 207 0
c gate 208 -205 207 0
-205 -208 0
207 -208 0
205 -207 208 0
c gate 209 -204 -208 0
-204 -209 0
-208 -209 0
204 208 209 0
c gate 210 129 -209 0
129 -210 0
-209 -210 0
-129 209 210 0
c gate 211 20 -127 0
20 -211 0
-127 -211 0
-20 127 211 0
c gate 212 18 127 0
18 -212 0
127 -212 0
-18 -127 212 0
c gate 213 -211 -212 0
-211 -213 0
-212 -213 0
211 212 213 0
c gate 214 -126 -213 0
-126 -214 0
-213 -214 0
126 213 214 0
c gate 215 -19 -127 0
-19 -215 0
-127 -215 0
19 127 215 0
c gate 216 -17 127 0
-17 -216 0
127 -216 0
17 -127 216 0
c gate 217 -215 -216 0
-215 -217 0
-216 -217 0
215 216 217 0
c gate 218 126 217 0
126 -218 0
217 -218 0
-126 -217 218 0
c gate 219 -129 -218 0
-129 -219 0
-218 -219 0
129 218 219 0
c gate 220 -214 219 0
-214 -220 0
219 -220 0
214 -219 220 0
c gate 221 -210 -220 0
-210 -221 0
-220 -221 0
210 220 221 0
c gate 222 128 -221 0
128 -222 0
-221 -222 0
-128 221 222 0
c gate 223 -200 -222 0
-200 -223 0
-222 -223 0
200 222 223 0
c gate 224 131 -223 0
131 -224 0
-223 -224 0
-131 223 224 0
c gate 225 130 -224 0
130 -225 0
-224 -225 0
-130 224 225 0
c gate 226 -178 225 0
-178 -226 0
225 -226 0
178 -225 226 0
c gate 227 132 226 0
132 -227 0
226 -227 0
-132 -226 227 0
c gate 228 -52 127 0
-52 -228 0
127 -228 0
52 -127 228 0
c gate 229 -54 -127 0
-54 -229 0
-127 -229 0
54 127 229 0
c gate 230 -228 -229 0
-228 -230 0
-229 -230 0
228 229 230 0
c gate 231 126 230 0
126 -231 0
230 -231 0
-126 -230 231 0
c gate 232 -126 161 0
-126 -232 0
161 -232 0
126 -161 232 0
c gate 233 -129 -232 0
-129 -233 0
-232 -233 0
129 232 233 0
c gate 234 -231 233 0
-231 -234 0
233 -234 0
231 -233 234 0
c gate 235 -44 127 0
-44 -235 0
127 -235 0
44 -127 235 0
c gate 236 -46 -127 0
-46 -236 0
-127 -236 0
46 127 236 0
c gate 237 126 -236 0
126 -237 0
-236 -237 0
-126 236 237 0
c gate 238 -235 237 0
-235 -238 0
237 -238 0
235 -237 238 0
c gate 239 -126 171 0
-126 -239 0
171 -239 0
126 -171 239 0
c gate 240 129 -239 0
129 -240 0
-239 -240 0
-129 239 240 0
c gate 241 -238 240 0
-238 -241 0
240 -241 0
238 -240 241 0
c gate 242 -234 -241 0
-234 -242 0
-241 -242 0
234 241 242 0
c gate 243 128 -242 0
128 -243 0
-242 -243 0
-128 242 243 0
c gate 244 -48 127 0
-48 -244 0
127 -244 0
48 -127 244 0
c gate 245 -50 -127 0
-50 -245 0
-127 -245 0
50 127 245 0
c gate 246 126 -245 0
126 -246 0
-245 -246 0
-126 245 246 0
c gate 247 -244 246 0
-244 -247 0
246 -247 0
244 -246 247 0
c gate 248 -126 135 0
-126 -248 0
135 -248 0
126 -135 248 0
c gate 249 129 -248 0
129 -249 0
-248 -249 0
-129 248 249 0
c gate 250 -247 249 0
-247 -250 0
249 -250 0
247 -249 250 0
c gate 251 -56 127 0
-56 -251 0
127 -251 0
56 -127 251 0
c gate 252 -58 -127 0
-58 -252 0
-127 -252 0
58 127 252 0
c gate 253 -251 -252 0
-251 -253 0
-252 -253 0
251 252 253 0
c gate 254 126 253 0
126 -254 0
253 -254 0
-126 -253 254 0
c gate 255 -59 -127 0
-59 -255 0
-127 -255 0
59 127 255 0
c gate 256 -57 127 0
-57 -256 0
127 -256 0
57 -127 256 0
c gate 257 -126 -256 0
-126 -257 0
-256 -257 0
126 256 257 0
c gate 258 -255 257 0
-255 -258 0
257 -258 0
255 -257 258 0
c gate 259 -129 -258 0
-129 -259 0
-258 -259 0
129 258 259 0
c gate 260 -254 259 0
-254 -260 0
259 -260 0
254 -259 260 0
c gate 261 -250 -260 0
-250 -261 0
-260 -261 0
250 260 261 0
c gate 262 -128 -261 0
-128 -262 0
-261 -262 0
128 261 262 0
c gate 263 -131 -262 0
-131 -263 0
-262 -263 0
131 262 263 0
c gate 264 -243 263 0
-243 -264 0
263 -264 0
243 -263 264 0
c gate 265 -20 127 0
-20 -265 0
127 -265 0
20 -127 265 0
c gate 266 -22 -127 0
-22 -266 0
-127 -266 0
22 127 266 0
c gate 267 -265 -266 0
-265 -267 0
-266 -267 0
265 266 267 0
c gate 268 126 267 0
126 -268 0
267 -268 0
-126 -267 268 0
c gate 269 -126 181 0
-126 -269 0
181 -269 0
126 -181 269 0
c gate 270 -129 -269 0
-129 -270 0
-269 -270 0
129 269 270 0
c gate 271 -268 270 0
-268 -271 0
270 -271 0
268 -270 271 0
c gate 272 -12 127 0
-12 -272 0
127 -272 0
12 -127 272 0
c gate 273 -14 -127 0
-14 -273 0
-127 -273 0
14 127 273 0
c gate 274 126 -273 0
126 -274 0
-273 -274 0
-126 273 274 0
c gate 275 -272 274 0
-272 -275 0
274 -275 0
272 -274 275 0
c gate 276 -126 191 0
-126 -276 0
191 -276 0
126 -191 276 0
c gate 277 129 -276 0
129 -277 0
-276 -277 0
-129 276 277 0
c gate 278 -275 277 0
-275 -278 0
277 -278 0
275 -277 278 0
c gate 279 -271 -278 0
-271 -279 0
-278 -279 0
271 278 279 0
c gate 280 128 -279 0
128 -280 0
-279 -280 0
-128 279 280 0
c gate 281 -16 127 0
-16 -281 0
127 -281 0
16 -127 281 0
c gate 282 -18 -127 0
-18 -282 0
-127 -282 0
18 127 282 0
c gate 283 126 -282 0
126 -283 0
-282 -283 0
-126 282 283 0
c gate 284 -281 283 0
-281 -284 0
283 -284 0
281 -283 284 0
c gate 285 -126 217 0
-126 -285 0
217 -285 0
126 -217 285 0
c gate 286 129 -285 0
129 -286 0
-285 -286 0
-129 285 286 0
c gate 287 -284 286 0
-284 -287 0
286 -287 0
284 -286 287 0
c gate 288 -24 127 0
-24 -288 0
127 -288 0
24 -127 288 0
c gate 289 -26 -127 0
-26 -289 0
-127 -289 0
26 127 289 0
c gate 290 -288 -289 0
-288 -290 0
-289 -290 0
288 289 290 0
c gate 291 126 290 0
126 -291 0
290 -291 0
-126 -290 291 0
c gate 292 -27 -127 0
-27 -292 0
-127 -292 0
27 127 292 0
c gate 293 -25 127 0
-25 -293 0
127 -293 0
25 -127 293 0
c gate 294 -126 -293 0
-126 -294 0
-293 -294 0
126 293 294 0
c gate 295 -292 294 0
-292 -295 0
294 -295 0
292 -294 295 0
c gate 296 -129 -295 0
-129 -296 0
-295 -296 0
129 295 296 0
c gate 297 -291 296 0
-291 -297 0
296 -297 0
291 -296 297 0
c gate 298 -287 -297 0
-287 -298 0
-297 -298 0
287 297 298 0
c gate 299 -128 -298 0
-128 -299 0
-298 -299 0
128 298 299 0
c gate 300 131 -299 0
131 -300 0
-299 -300 0
-131 299 300 0
c gate 301 -280 300 0
-280 -301 0
300 -301 0
280 -300 301 0
c gate 302 130 -301 0
130 -302 0
-301 -302 0
-130 301 302 0
c gate 303 -264 302 0
-264 -303 0
302 -303 0
264 -302 303 0
c gate 304 227 -303 0
227 -304 0
-303 -304 0
-227 303 304 0
c gate 305 -55 127 0
-55 -305 0
127 -305 0
55 -127 305 0
c gate 306 -57 -127 0
-57 -306 0
-127 -306 0
57 127 306 0
c gate 307 126 -306 0
126 -307 0
-306 -307 0
-126 306 307 0
c gate 308 -305 307 0
-305 -308 0
307 -308 0
305 -307 308 0
c gate 309 -126 253 0
-126 -309 0
253 -309 0
126 -253 309 0
c gate 310 129 -309 0
129 -310 0
-309 -310 0
-129 309 310 0
c gate 311 -308 310 0
-308 -311 0
310 -311 0
308 -310 311 0
c gate 312 -63 127 0
-63 -312 0
127 -312 0
63 -127 312 0
c gate 313 -65 -127 0
-65 -313 0
-127 -313 0
65 127 313 0
c gate 314 126 -313 0
126 -314 0
-313 -314 0
-126 313 314 0
c gate 315 -312 314 0
-312 -315 0
314 -315 0
312 -314 315 0
c gate 316 -64 127 0
-64 -316 0
127 -316 0
64 -127 316 0
c gate 317 -66 -127 0
-66 -317 0
-127 -317 0
66 127 317 0
c gate 318 -316 -317 0
-316 -318 0
-317 -318 0
316 317 318 0
c gate 319 -126 318 0
-126 -319 0
318 -319 0
126 -318 319 0
c gate 320 -129 -319 0
-129 -320 0
-319 -320 0
129 319 320 0
c gate 321 -315 320 0
-315 -321 0
320 -321 0
315 -320 321 0
c gate 322 -128 -321 0
-128 -322 0
-321 -322 0
128 321 322 0
c gate 323 -311 322 0
-311 -323 0
322 -323 0
311 -322 323 0
c gate 324 -51 127 0
-51 -324 0
127 -324 0
51 -127 324 0
c gate 325 -53 -127 0
-53 -325 0
-127 -325 0
53 127 325 0
c gate 326 126 -325 0
126 -326 0
-325 -326 0
-126 325 326 0
c gate 327 -324 326 0
-324 -327 0
326 -327 0
324 -326 327 0
c gate 328 -126 230 0
-126 -328 0
230 -328 0
126 -230 328 0
c gate 329 129 -328 0
129 -329 0
-328 -329 0
-129 328 329 0
c gate 330 -327 329 0
-327 -330 0
329 -330 0
327 -329 330 0
c gate 331 -60 127 0
-60 -331 0
127 -331 0
60 -127 331 0
c gate 332 -62 -127 0
-62 -332 0
-127 -332 0
62 127 332 0
c gate 333 -126 -332 0
-126 -333 0
-332 -333 0
126 332 333 0
c gate 334 -331 333 0
-331 -334 0
333 -334 0
331 -333 334 0
c gate 335 -59 127 0
-59 -335 0
127 -335 0
59 -127 335 0
c gate 336 -61 -127 0
-61 -336 0
-127 -336 0
61 127 336 0
c gate 337 126 -336 0
126 -337 0
-336 -337 0
-126 336 337 0
c gate 338 -335 337 0
-335 -338 0
337 -338 0
335 -337 338 0
c gate 339 -129 -338 0
-129 -339 0
-338 -339 0
129 338 339 0
c gate 340 -334 339 0
-334 -340 0
339 -340 0
334 -339 340 0
c gate 341 128 -340 0
128 -341 0
-340 -341 0
-128 340 341 0
c gate 342 -330 341 0
-330 -342 0
341 -342 0
330 -341 342 0
c gate 343 -323 -342 0
-323 -343 0
-342 -343 0
323 342 343 0
c gate 344 -131 -343 0
-131 -344 0
-343 -344 0
131 343 344 0
c gate 345 27 127 0
27 -345 0
127 -345 0
-27 -127 345 0
c gate 346 29 -127 0
29 -346 0
-127 -346 0
-29 127 346 0
c gate 347 126 -346 0
126 -347 0
-346 -347 0
-126 346 347 0
c gate 348 -345 347 0
-345 -348 0
347 -348 0
345 -347 348 0
c gate 349 28 127 0
28 -349 0
127 -349 0
-28 -127 349 0
c gate 350 30 -127 0
30 -350 0
-127 -350 0
-30 127 350 0
c gate 351 -126 -350 0
-126 -351 0
-350 -351 0
126 350 351 0
c gate 352 -349 351 0
-349 -352 0
351 -352 0
349 -351 352 0
c gate 353 -348 -352 0
-348 -353 0
-352 -353 0
348 352 353 0
c gate 354 -129 -353 0
-129 -354 0
-353 -354 0
129 353 354 0
c gate 355 21 -127 0
21 -355 0
-127 -355 0
-21 127 355 0
c gate 356 19 127 0
19 -356 0
127 -356 0
-19 -127 356 0
c gate 357 -355 -356 0
-355 -357 0
-356 -357 0
355 356 357 0
c gate 358 126 -357 0
126 -358 0
-357 -358 0
-126 357 358 0
c gate 359 -126 267 0
-126 -359 0
267 -359 0
126 -267 359 0
c gate 360 129 -359 0
129 -360 0
-359 -360 0
-129 359 360 0
c gate 361 -358 360 0
-358 -361 0
360 -361 0
358 -360 361 0
c gate 362 -354 -361 0
-354 -362 0
-361 -362 0
354 361 362 0
c gate 363 128 -362 0
128 -363 0
-362 -363 0
-128 362 363 0
c gate 364 32 127 0
32 -364 0
127 -364 0
-32 -127 364 0
c gate 365 34 -127 0
34 -365 0
-127 -365 0
-34 127 365 0
c gate 366 -126 -365 0
-126 -366 0
-365 -366 0
126 365 366 0
c gate 367 -364 366 0
-364 -367 0
366 -367 0
364 -366 367 0
c gate 368 31 127 0
31 -368 0
127 -368 0
-31 -127 368 0
c gate 369 33 -127 0
33 -369 0
-127 -369 0
-33 127 369 0
c gate 370 126 -369 0
126 -370 0
-369 -370 0
-126 369 370 0
c gate 371 -368 370 0
-368 -371 0
370 -371 0
368 -370 371 0
c gate 372 -367 -371 0
-367 -372 0
-371 -372 0
367 371 372 0
c gate 373 -129 -372 0
-129 -373 0
-372 -373 0
129 372 373 0
c gate 374 25 -127 0
25 -374 0
-127 -374 0
-25 127 374 0
c gate 375 23 127 0
23 -375 0
127 -375 0
-23 -127 375 0
c gate 376 -374 -375 0
-374 -376 0
-375 -376 0
374 375 376 0
c gate 377 126 -376 0
126 -377 0
-376 -377 0
-126 376 377 0
c gate 378 -126 290 0
-126 -378 0
290 -378 0
126 -290 378 0
c gate 379 129 -378 0
129 -379 0
-378 -379 0
-129 378 379 0
c gate 380 -377 379 0
-377 -380 0
379 -380 0
377 -379 380 0
c gate 381 -373 -380 0
-373 -381 0
-380 -381 0
373 380 381 0
c gate 382 -128 -381 0
-128 -382 0
-381 -382 0
128 381 382 0
c gate 383 131 -382 0
131 -383 0
-382 -383 0
-131 382 383 0
c gate 384 -363 383 0
-363 -384 0
383 -384 0
363 -383 384 0
c gate 385 -344 -384 0
-344 -385 0
-384 -385 0
344 384 385 0
c gate 386 130 -385 0
130 -386 0
-385 -386 0
-130 385 386 0
c gate 387 132 386 0
132 -387 0
386 -387 0
-132 -386 387 0
c gate 388 -304 -387 0
-304 -388 0
-387 -388 0
304 387 388 0
c gate 389 129 353 0
129 -389 0
353 -389 0
-129 -353 389 0
c gate 390 -35 127 0
-35 -390 0
127 -390 0
35 -127 390 0
c gate 391 -37 -127 0
-37 -391 0
-127 -391 0
37 127 391 0
c gate 392 126 -391 0
126 -392 0
-391 -392 0
-126 391 392 0
c gate 393 -390 392 0
-390 -393 0
392 -393 0
390 -392 393 0
c gate 394 -36 127 0
-36 -394 0
127 -394 0
36 -127 394 0
c gate 395 -38 -127 0
-38 -395 0
-127 -395 0
38 127 395 0
c gate 396 -126 -395 0
-126 -396 0
-395 -396 0
126 395 396 0
c gate 397 -394 396 0
-394 -397 0
396 -397 0
394 -396 397 0
c gate 398 -393 -397 0
-393 -398 0
-397 -398 0
393 397 398 0
c gate 399 -129 -398 0
-129 -399 0
-398 -399 0
129 398 399 0
c gate 400 -128 -399 0
-128 -400 0
-399 -400 0
128 399 400 0
c gate 401 -389 400 0
-389 -401 0
400 -401 0
389 -400 401 0
c gate 402 128 -381 0
128 -402 0
-381 -402 0
-128 381 402 0
c gate 403 -131 -402 0
-131 -403 0
-402 -403 0
131 402 403 0
c gate 404 -401 403 0
-401 -404 0
403 -404 0
401 -403 404 0
c gate 405 -3 -127 0
-3 -405 0
-127 -405 0
3 127 405 0
c gate 406 -1 127 0
-1 -406 0
127 -406 0
1 -127 406 0
c gate 407 -405 -406 0
-405 -407 0
-406 -407 0
405 406 407 0
c gate 408 126 407 0
126 -408 0
407 -408 0
-126 -407 408 0
c gate 409 -4 -127 0
-4 -409 0
-127 -409 0
4 127 409 0
c gate 410 -2 127 0
-2 -410 0
127 -410 0
2 -127 410 0
c gate 411 -126 -410 0
-126 -411 0
-410 -411 0
126 410 411 0
c gate 412 -409 411 0
-409 -412 0
411 -412 0
409 -411 412 0
c gate 413 -129 -412 0
-129 -413 0
-412 -413 0
129 412 413 0
c gate 414 -408 413 0
-408 -414 0
413 -414 0
408 -413 414 0
c gate 415 -120 -127 0
-120 -415 0
-127 -415 0
120 127 415 0
c gate 416 -118 127 0
-118 -416 0
127 -416 0
118 -127 416 0
c gate 417 -415 -416 0
-415 -417 0
-416 -417 0
415 416 417 0
c gate 418 126 417 0
126 -418 0
417 -418 0
-126 -417 418 0
c gate 419 -121 -127 0
-121 -419 0
-127 -419 0
121 127 419 0
c gate 420 -119 127 0
-119 -420 0
127 -420 0
119 -127 420 0
c gate 421 -126 -420 0
-126 -421 0
-420 -421 0
126 420 421 0
c gate 422 -419 421 0
-419 -422 0
421 -422 0
419 -421 422 0
c gate 423 129 -422 0
129 -423 0
-422 -423 0
-129 422 423 0
c gate 424 -418 423 0
-418 -424 0
423 -424 0
418 -423 424 0
c gate 425 -414 -424 0
-414 -425 0
-424 -425 0
414 424 425 0
c gate 426 128 -425 0
128 -426 0
-425 -426 0
-128 425 426 0
c gate 427 6 127 0
6 -427 0
127 -427 0
-6 -127 427 0
c gate 428 8 -127 0
8 -428 0
-127 -428 0
-8 127 428 0
c gate 429 -126 -428 0
-126 -429 0
-428 -429 0
126 428 429 0
c gate 430 -427 429 0
-427 -430 0
429 -430 0
427 -429 430 0
c gate 431 5 127 0
5 -431 0
127 -431 0
-5 -127 431 0
c gate 432 7 -127 0
7 -432 0
-127 -432 0
-7 127 432 0
c gate 433 126 -432 0
126 -433 0
-432 -433 0
-126 432 433 0
c gate 434 -431 433 0
-431 -434 0
433 -434 0
431 -433 434 0
c gate 435 -430 -434 0
-430 -435 0
-434 -435 0
430 434 435 0
c gate 436 -129 -435 0
-129 -436 0
-435 -436 0
129 435 436 0
c gate 437 125 -127 0
125 -437 0
-127 -437 0
-125 127 437 0
c gate 438 123 127 0
123 -438 0
127 -438 0
-123 -127 438 0
c gate 439 -437 -438 0
-437 -439 0
-438 -439 0
437 438 439 0
c gate 440 -126 -439 0
-126 -440 0
-439 -440 0
126 439 440 0
c gate 441 -124 -127 0
-124 -441 0
-127 -441 0
124 127 441 0
c gate 442 -122 127 0
-122 -442 0
127 -442 0
122 -127 442 0
c gate 443 -441 -442 0
-441 -443 0
-442 -443 0
441 442 443 0
c gate 444 126 443 0
126 -444 0
443 -444 0
-126 -443 444 0
c gate 445 129 -444 0
129 -445 0
-444 -445 0
-129 444 445 0
c gate 446 -440 445 0
-440 -446 0
445 -446 0
440 -445 446 0
c gate 447 -436 -446 0
-436 -447 0
-446 -447 0
436 446 447 0
c gate 448 -128 -447 0
-128 -448 0
-447 -448 0
128 447 448 0
c gate 449 -426 -448 0
-426 -449 0
-448 -449 0
426 448 449 0
c gate 450 131 449 0
131 -450 0
449 -450 0
-131 -449 450 0
c gate 451 130 -450 0
130 -451 0
-450 -451 0
-130 450 451 0
c gate 452 -404 451 0
-404 -452 0
451 -452 0
404 -451 452 0
c gate 453 132 452 0
132 -453 0
452 -453 0
-132 -452 453 0
c gate 454 39 -127 0
39 -454 0
-127 -454 0
-39 127 454 0
c gate 455 37 127 0
37 -455 0
127 -455 0
-37 -127 455 0
c gate 456 126 -455 0
126 -456 0
-455 -456 0
-126 455 456 0
c gate 457 -454 456 0
-454 -457 0
456 -457 0
454 -456 457 0
c gate 458 40 -127 0
40 -458 0
-127 -458 0
-40 127 458 0
c gate 459 38 127 0
38 -459 0
127 -459 0
-38 -127 459 0
c gate 460 -126 -459 0
-126 -460 0
-459 -460 0
126 459 460 0
c gate 461 -458 460 0
-458 -461 0
460 -461 0
458 -460 461 0
c gate 462 129 -461 0
129 -462 0
-461 -462 0
-129 461 462 0
c gate 463 -457 462 0
-457 -463 0
462 -463 0
457 -462 463 0
c gate 464 -129 -173 0
-129 -464 0
-173 -464 0
129 173 464 0
c gate 465 -128 -464 0
-128 -465 0
-464 -465 0
128 464 465 0
c gate 466 -463 465 0
-463 -466 0
465 -466 0
463 -465 466 0
c gate 467 -129 -151 0
-129 -467 0
-151 -467 0
129 151 467 0
c gate 468 -33 127 0
-33 -468 0
127 -468 0
33 -127 468 0
c gate 469 -35 -127 0
-35 -469 0
-127 -469 0
35 127 469 0
c gate 470 126 -469 0
126 -470 0
-469 -470 0
-126 469 470 0
c gate 471 -468 470 0
-468 -471 0
470 -471 0
468 -470 471 0
c gate 472 -34 127 0
-34 -472 0
127 -472 0
34 -127 472 0
c gate 473 -36 -127 0
-36 -473 0
-127 -473 0
36 127 473 0
c gate 474 -126 -473 0
-126 -474 0
-473 -474 0
126 473 474 0
c gate 475 -472 474 0
-472 -475 0
474 -475 0
472 -474 475 0
c gate 476 -471 -475 0
-471 -476 0
-475 -476 0
471 475 476 0
c gate 477 129 -476 0
129 -477 0
-476 -477 0
-129 476 477 0
c gate 478 128 -477 0
128 -478 0
-477 -478 0
-128 477 478 0
c gate 479 -467 478 0
-467 -479 0
478 -479 0
467 -478 479 0
c gate 480 -466 -479 0
-466 -480 0
-479 -480 0
466 479 480 0
c gate 481 131 -480 0
131 -481 0
-480 -481 0
-131 480 481 0
c gate 482 -67 -127 0
-67 -482 0
-127 -482 0
67 127 482 0
c gate 483 -65 127 0
-65 -483 0
127 -483 0
65 -127 483 0
c gate 484 -482 -483 0
-482 -484 0
-483 -484 0
482 483 484 0
c gate 485 126 484 0
126 -485 0
484 -485 0
-126 -484 485 0
c gate 486 -66 127 0
-66 -486 0
127 -486 0
66 -127 486 0
c gate 487 -68 -127 0
-68 -487 0
-127 -487 0
68 127 487 0
c gate 488 -126 -487 0
-126 -488 0
-487 -488 0
126 487 488 0
c gate 489 -486 488 0
-486 -489 0
488 -489 0
486 -488 489 0
c gate 490 129 -489 0
129 -490 0
-489 -490 0
-129 489 490 0
c gate 491 -485 490 0
-485 -491 0
490 -491 0
485 -490 491 0
c gate 492 -75 -127 0
-75 -492 0
-127 -492 0
75 127 492 0
c gate 493 -73 127 0
-73 -493 0
127 -493 0
73 -127 493 0
c gate 494 -492 -493 0
-492 -494 0
-493 -494 0
492 493 494 0
c gate 495 126 494 0
126 -495 0
494 -495 0
-126 -494 495 0
c gate 496 -74 127 0
-74 -496 0
127 -496 0
74 -127 496 0
c gate 497 -76 -127 0
-76 -497 0
-127 -497 0
76 127 497 0
c gate 498 -126 -497 0
-126 -498 0
-497 -498 0
126 497 498 0
c gate 499 -496 498 0
-496 -499 0
498 -499 0
496 -498 499 0
c gate 500 -129 -499 0
-129 -500 0
-499 -500 0
129 499 500 0
c gate 501 -495 500 0
-495 -501 0
500 -501 0
495 -500 501 0
c gate 502 128 -501 0
128 -502 0
-501 -502 0
-128 501 502 0
c gate 503 -491 502 0
-491 -503 0
502 -503 0
491 -502 503 0
c gate 504 -79 -127 0
-79 -504 0
-127 -504 0
79 127 504 0
c gate 505 -77 127 0
-77 -505 0
127 -505 0
77 -127 505 0
c gate 506 -504 -505 0
-504 -506 0
-505 -506 0
504 505 506 0
c gate 507 126 506 0
126 -507 0
506 -507 0
-126 -506 507 0
c gate 508 -78 127 0
-78 -508 0
127 -508 0
78 -127 508 0
c gate 509 -80 -127 0
-80 -509 0
-127 -509 0
80 127 509 0
c gate 510 -126 -509 0
-126 -510 0
-509 -510 0
126 509 510 0
c gate 511 -508 510 0
-508 -511 0
510 -511 0
508 -510 511 0
c gate 512 -129 -511 0
-129 -512 0
-511 -512 0
129 511 512 0
c gate 513 -507 512 0
-507 -513 0
512 -513 0
507 -512 513 0
c gate 514 -71 -127 0
-71 -514 0
-127 -514 0
71 127 514 0
c gate 515 -69 127 0
-69 -515 0
127 -515 0
69 -127 515 0
c gate 516 -514 -515 0
-514 -516 0
-515 -516 0
514 515 516 0
c gate 517 126 516 0
126 -517 0
516 -517 0
-126 -516 517 0
c gate 518 -70 127 0
-70 -518 0
127 -518 0
70 -127 518 0
c gate 519 -72 -127 0
-72 -519 0
-127 -519 0
72 127 519 0
c gate 520 -126 -519 0
-126 -520 0
-519 -520 0
126 519 520 0
c gate 521 -518 520 0
-518 -521 0
520 -521 0
518 -520 521 0
c gate 522 129 -521 0
129 -522 0
-521 -522 0
-129 521 522 0
c gate 523 -517 522 0
-517 -523 0
522 -523 0
517 -522 523 0
c gate 524 -128 -523 0
-128 -524 0
-523 -524 0
128 523 524 0
c gate 525 -513 524 0
-513 -525 0
524 -525 0
513 -524 525 0
c gate 526 -131 -525 0
-131 -526 0
-525 -526 0
131 525 526 0
c gate 527 -503 526 0
-503 -527 0
526 -527 0
503 -526 527 0
c gate 528 130 -527 0
130 -528 0
-527 -528 0
-130 527 528 0
c gate 529 -481 528 0
-481 -529 0
528 -529 0
481 -528 529 0
c gate 530 -132 529 0
-132 -530 0
529 -530 0
132 -529 530 0
c gate 531 -132 386 0
-132 -531 0
386 -531 0
132 -386 531 0
c gate 532 -88 -127 0
-88 -532 0
-127 -532 0
88 127 532 0
c gate 533 -86 127 0
-86 -533 0
127 -533 0
86 -127 533 0
c gate 534 -532 -533 0
-532 -534 0
-533 -534 0
532 533 534 0
c gate 535 126 534 0
126 -535 0
534 -535 0
-126 -534 535 0
c gate 536 -89 -127 0
-89 -536 0
-127 -536 0
89 127 536 0
c gate 537 -87 127 0
-87 -537 0
127 -537 0
87 -127 537 0
c gate 538 -126 -537 0
-126 -538 0
-537 -538 0
126 537 538 0
c gate 539 -536 538 0
-536 -539 0
538 -539 0
536 -538 539 0
c gate 540 129 -539 0
129 -540 0
-539 -540 0
-129 539 540 0
c gate 541 -535 540 0
-535 -541 0
540 -541 0
535 -540 541 0
c gate 542 -96 -127 0
-96 -542 0
-127 -542 0
96 127 542 0
c gate 543 -94 127 0
-94 -543 0
127 -543 0
94 -127 543 0
c gate 544 -542 -543 0
-542 -544 0
-543 -544 0
542 543 544 0
c gate 545 126 544 0
126 -545 0
544 -545 0
-126 -544 545 0
c gate 546 -95 127 0
-95 -546 0
127 -546 0
95 -127 546 0
c gate 547 -97 -127 0
-97 -547 0
-127 -547 0
97 127 547 0
c gate 548 -546 -547 0
-546 -548 0
-547 -548 0
546 547 548 0
c gate 549 -126 548 0
-126 -549 0
548 -549 0
126 -548 549 0
c gate 550 -129 -549 0
-129 -550 0
-549 -550 0
129 549 550 0
c gate 551 -545 550 0
-545 -551 0
550 -551 0
545 -550 551 0
c gate 552 -541 -551 0
-541 -552 0
-551 -552 0
541 551 552 0
c gate 553 128 -552 0
128 -553 0
-552 -553 0
-128 552 553 0
c gate 554 -98 127 0
-98 -554 0
127 -554 0
98 -127 554 0
c gate 555 -100 -127 0
-100 -555 0
-127 -555 0
100 127 555 0
c gate 556 126 -555 0
126 -556 0
-555 -556 0
-126 555 556 0
c gate 557 -554 556 0
-554 -557 0
556 -557 0
554 -556 557 0
c gate 558 -99 127 0
-99 -558 0
127 -558 0
99 -127 558 0
c gate 559 -101 -127 0
-101 -559 0
-127 -559 0
101 127 559 0
c gate 560 -558 -559 0
-558 -560 0
-559 -560 0
558 559 560 0
c gate 561 -126 560 0
-126 -561 0
560 -561 0
126 -560 561 0
c gate 562 -129 -561 0
-129 -562 0
-561 -562 0
129 561 562 0
c gate 563 -557 562 0
-557 -563 0
562 -563 0
557 -562 563 0
c gate 564 -92 -127 0
-92 -564 0
-127 -564 0
92 127 564 0
c gate 565 -90 127 0
-90 -565 0
127 -565 0
90 -127 565 0
c gate 566 -564 -565 0
-564 -566 0
-565 -566 0
564 565 566 0
c gate 567 126 566 0
126 -567 0
566 -567 0
-126 -566 567 0
c gate 568 -93 -127 0
-93 -568 0
-127 -568 0
93 127 568 0
c gate 569 -91 127 0
-91 -569 0
127 -569 0
91 -127 569 0
c gate 570 -126 -569 0
-126 -570 0
-569 -570 0
126 569 570 0
c gate 571 -568 570 0
-568 -571 0
570 -571 0
568 -570 571 0
c gate 572 129 -571 0
129 -572 0
-571 -572 0
-129 571 572 0
c gate 573 -567 572 0
-567 -573 0
572 -573 0
567 -572 573 0
c gate 574 -563 -573 0
-563 -574 0
-573 -574 0
563 573 574 0
c gate 575 -128 -574 0
-128 -575 0
-574 -575 0
128 574 575 0
c gate 576 131 -575 0
131 -576 0
-575 -576 0
-131 575 576 0
c gate 577 -553 576 0
-553 -577 0
576 -577 0
553 -576 577 0
c gate 578 -131 449 0
-131 -578 0
449 -578 0
131 -449 578 0
c gate 579 130 -578 0
130 -579 0
-578 -579 0
-130 578 579 0
c gate 580 -577 579 0
-577 -580 0
579 -580 0
577 -579 580 0
c gate 581 132 580 0
132 -581 0
580 -581 0
-132 -580 581 0
c gate 582 -87 -127 0
-87 -582 0
-127 -582 0
87 127 582 0
c gate 583 -85 127 0
-85 -583 0
127 -583 0
85 -127 583 0
c gate 584 126 -583 0
126 -584 0
-583 -584 0
-126 583 584 0
c gate 585 -582 584 0
-582 -585 0
584 -585 0
582 -584 585 0
c gate 586 -126 534 0
-126 -586 0
534 -586 0
126 -534 586 0
c gate 587 129 -586 0
129 -587 0
-586 -587 0
-129 586 587 0
c gate 588 -585 587 0
-585 -588 0
587 -588 0
585 -587 588 0
c gate 589 -95 -127 0
-95 -589 0
-127 -589 0
95 127 589 0
c gate 590 -93 127 0
-93 -590 0
127 -590 0
93 -127 590 0
c gate 591 126 -590 0
126 -591 0
-590 -591 0
-126 590 591 0
c gate 592 -589 591 0
-589 -592 0
591 -592 0
589 -591 592 0
c gate 593 -126 544 0
-126 -593 0
544 -593 0
126 -544 593 0
c gate 594 -129 -593 0
-129 -594 0
-593 -594 0
129 593 594 0
c gate 595 -592 594 0
-592 -595 0
594 -595 0
592 -594 595 0
c gate 596 -128 -595 0
-128 -596 0
-595 -596 0
128 595 596 0
c gate 597 -588 596 0
-588 -597 0
596 -597 0
588 -596 597 0
c gate 598 -91 -127 0
-91 -598 0
-127 -598 0
91 127 598 0
c gate 599 -89 127 0
-89 -599 0
127 -599 0
89 -127 599 0
c gate 600 126 -599 0
126 -600 0
-599 -600 0
-126 599 600 0
c gate 601 -598 600 0
-598 -601 0
600 -601 0
598 -600 601 0
c gate 602 -126 566 0
-126 -602 0
566 -602 0
126 -566 602 0
c gate 603 -129 -602 0
-129 -603 0
-602 -603 0
129 602 603 0
c gate 604 -601 603 0
-601 -604 0
603 -604 0
601 -603 604 0
c gate 605 -82 127 0
-82 -605 0
127 -605 0
82 -127 605 0
c gate 606 -84 -127 0
-84 -606 0
-127 -606 0
84 127 606 0
c gate 607 -126 -606 0
-126 -607 0
-606 -607 0
126 606 607 0
c gate 608 -605 607 0
-605 -608 0
607 -608 0
605 -607 608 0
c gate 609 -81 127 0
-81 -609 0
127 -609 0
81 -127 609 0
c gate 610 -83 -127 0
-83 -610 0
-127 -610 0
83 127 610 0
c gate 611 126 -610 0
126 -611 0
-610 -611 0
-126 610 611 0
c gate 612 -609 611 0
-609 -612 0
611 -612 0
609 -611 612 0
c gate 613 129 -612 0
129 -613 0
-612 -613 0
-129 612 613 0
c gate 614 -608 613 0
-608 -614 0
613 -614 0
608 -613 614 0
c gate 615 128 -614 0
128 -615 0
-614 -615 0
-128 614 615 0
c gate 616 -604 615 0
-604 -616 0
615 -616 0
604 -615 616 0
c gate 617 -597 -616 0
-597 -617 0
-616 -617 0
597 616 617 0
c gate 618 131 -617 0
131 -618 0
-617 -618 0
-131 617 618 0
c gate 619 -114 127 0
-114 -619 0
127 -619 0
114 -127 619 0
c gate 620 -116 -127 0
-116 -620 0
-127 -620 0
116 127 620 0
c gate 621 -126 -620 0
-126 -621 0
-620 -621 0
126 620 621 0
c gate 622 -619 621 0
-619 -622 0
621 -622 0
619 -621 622 0
c gate 623 115 -127 0
115 -623 0
-127 -623 0
-115 127 623 0
c gate 624 113 127 0
113 -624 0
127 -624 0
-113 -127 624 0
c gate 625 -623 -624 0
-623 -625 0
-624 -625 0
623 624 625 0
c gate 626 126 -625 0
126 -626 0
-625 -626 0
-126 625 626 0
c gate 627 129 -626 0
129 -627 0
-626 -627 0
-129 626 627 0
c gate 628 -622 627 0
-622 -628 0
627 -628 0
622 -627 628 0
c gate 629 -123 -127 0
-123 -629 0
-127 -629 0
123 127 629 0
c gate 630 -121 127 0
-121 -630 0
127 -630 0
121 -127 630 0
c gate 631 126 -630 0
126 -631 0
-630 -631 0
-126 630 631 0
c gate 632 -629 631 0
-629 -632 0
631 -632 0
629 -631 632 0
c gate 633 -126 443 0
-126 -633 0
443 -633 0
126 -443 633 0
c gate 634 -129 -633 0
-129 -634 0
-633 -634 0
129 633 634 0
c gate 635 -632 634 0
-632 -635 0
634 -635 0
632 -634 635 0
c gate 636 -628 -635 0
-628 -636 0
-635 -636 0
628 635 636 0
c gate 637 128 -636 0
128 -637 0
-636 -637 0
-128 636 637 0
c gate 638 119 -127 0
119 -638 0
-127 -638 0
-119 127 638 0
c gate 639 117 127 0
117 -639 0
127 -639 0
-117 -127 639 0
c gate 640 -638 -639 0
-638 -640 0
-639 -640 0
638 639 640 0
c gate 641 126 -640 0
126 -641 0
-640 -641 0
-126 640 641 0
c gate 642 -126 417 0
-126 -642 0
417 -642 0
126 -417 642 0
c gate 643 129 -642 0
129 -643 0
-642 -643 0
-129 642 643 0
c gate 644 -641 643 0
-641 -644 0
643 -644 0
641 -643 644 0
c gate 645 -2 -127 0
-2 -645 0
-127 -645 0
2 127 645 0
c gate 646 -125 127 0
-125 -646 0
127 -646 0
125 -127 646 0
c gate 647 126 -646 0
126 -647 0
-646 -647 0
-126 646 647 0
c gate 648 -645 647 0
-645 -648 0
647 -648 0
645 -647 648 0
c gate 649 -126 407 0
-126 -649 0
407 -649 0
126 -407 649 0
c gate 650 -129 -649 0
-129 -650 0
-649 -650 0
129 649 650 0
c gate 651 -648 650 0
-648 -651 0
650 -651 0
648 -650 651 0
c gate 652 -644 -651 0
-644 -652 0
-651 -652 0
644 651 652 0
c gate 653 -128 -652 0
-128 -653 0
-652 -653 0
128 652 653 0
c gate 654 -131 -653 0
-131 -654 0
-653 -654 0
131 653 654 0
c gate 655 -637 654 0
-637 -655 0
654 -655 0
637 -654 655 0
c gate 656 130 -655 0
130 -656 0
-655 -656 0
-130 655 656 0
c gate 657 -618 656 0
-618 -657 0
656 -657 0
618 -656 657 0
c gate 658 132 657 0
132 -658 0
657 -658 0
-132 -657 658 0
c gate 659 -132 452 0
-132 -659 0
452 -659 0
132 -452 659 0
c gate 660 132 529 0
132 -660 0
529 -660 0
-132 -529 660 0
c gate 661 105 127 0
105 -661 0
127 -661 0
-105 -127 661 0
c gate 662 107 -127 0
107 -662 0
-127 -662 0
-107 127 662 0
c gate 663 -126 -662 0
-126 -663 0
-662 -663 0
126 662 663 0
c gate 664 -661 663 0
-661 -664 0
663 -664 0
661 -663 664 0
c gate 665 -106 -127 0
-106 -665 0
-127 -665 0
106 127 665 0
c gate 666 -104 127 0
-104 -666 0
127 -666 0
104 -127 666 0
c gate 667 -665 -666 0
-665 -667 0
-666 -667 0
665 666 667 0
c gate 668 126 -667 0
126 -668 0
-667 -668 0
-126 667 668 0
c gate 669 129 -668 0
129 -669 0
-668 -669 0
-129 668 669 0
c gate 670 -664 669 0
-664 -670 0
669 -670 0
664 -669 670 0
c gate 671 114 -127 0
114 -671 0
-127 -671 0
-114 127 671 0
c gate 672 112 127 0
112 -672 0
127 -672 0
-112 -127 672 0
c gate 673 126 -672 0
126 -673 0
-672 -673 0
-126 672 673 0
c gate 674 -671 673 0
-671 -674 0
673 -674 0
671 -673 674 0
c gate 675 -126 625 0
-126 -675 0
625 -675 0
126 -625 675 0
c gate 676 -129 -675 0
-129 -676 0
-675 -676 0
129 675 676 0
c gate 677 -674 676 0
-674 -677 0
676 -677 0
674 -676 677 0
c gate 678 -670 -677 0
-670 -678 0
-677 -678 0
670 677 678 0
c gate 679 128 -678 0
128 -679 0
-678 -679 0
-128 678 679 0
c gate 680 109 127 0
109 -680 0
127 -680 0
-109 -127 680 0
c gate 681 111 -127 0
111 -681 0
-127 -681 0
-111 127 681 0
c gate 682 -126 -681 0
-126 -682 0
-681 -682 0
126 681 682 0
c gate 683 -680 682 0
-680 -683 0
682 -683 0
680 -682 683 0
c gate 684 -110 -127 0
-110 -684 0
-127 -684 0
110 127 684 0
c gate 685 -108 127 0
-108 -685 0
127 -685 0
108 -127 685 0
c gate 686 -684 -685 0
-684 -686 0
-685 -686 0
684 685 686 0
c gate 687 126 -686 0
126 -687 0
-686 -687 0
-126 686 687 0
c gate 688 129 -687 0
129 -688 0
-687 -688 0
-129 687 688 0
c gate 689 -683 688 0
-683 -689 0
688 -689 0
683 -688 689 0
c gate 690 118 -127 0
118 -690 0
-127 -690 0
-118 127 690 0
c gate 691 116 127 0
116 -691 0
127 -691 0
-116 -127 691 0
c gate 692 126 -691 0
126 -692 0
-691 -692 0
-126 691 692 0
c gate 693 -690 692 0
-690 -693 0
692 -693 0
690 -692 693 0
c gate 694 -126 640 0
-126 -694 0
640 -694 0
126 -640 694 0
c gate 695 -129 -694 0
-129 -695 0
-694 -695 0
129 694 695 0
c gate 696 -693 695 0
-693 -696 0
695 -696 0
693 -695 696 0
c gate 697 -689 -696 0
-689 -697 0
-696 -697 0
689 696 697 0
c gate 698 -128 -697 0
-128 -698 0
-697 -698 0
128 697 698 0
c gate 699 131 -698 0
131 -699 0
-698 -699 0
-131 698 699 0
c gate 700 -679 699 0
-679 -700 0
699 -700 0
679 -699 700 0
c gate 701 -131 -223 0
-131 -701 0
-223 -701 0
131 223 701 0
c gate 702 130 -701 0
130 -702 0
-701 -702 0
-130 701 702 0
c gate 703 -700 702 0
-700 -703 0
702 -703 0
700 -702 703 0
c gate 704 -132 703 0
-132 -704 0
703 -704 0
132 -703 704 0
c gate 705 -660 -704 0
-660 -705 0
-704 -705 0
660 704 705 0
c gate 706 388 705 0
388 -706 0
705 -706 0
-388 -705 706 0
c gate 707 -659 -706 0
-659 -707 0
-706 -707 0
659 706 707 0
c gate 708 -132 226 0
-132 -708 0
226 -708 0
132 -226 708 0
c gate 709 -707 -708 0
-707 -709 0
-708 -709 0
707 708 709 0
c gate 710 -103 127 0
-103 -710 0
127 -710 0
103 -127 710 0
c gate 711 -105 -127 0
-105 -711 0
-127 -711 0
105 127 711 0
c gate 712 126 -711 0
126 -712 0
-711 -712 0
-126 711 712 0
c gate 713 -710 712 0
-710 -713 0
712 -713 0
710 -712 713 0
c gate 714 -126 667 0
-126 -714 0
667 -714 0
126 -667 714 0
c gate 715 -129 -714 0
-129 -715 0
-714 -715 0
129 714 715 0
c gate 716 -713 715 0
-713 -716 0
715 -716 0
713 -715 716 0
c gate 717 126 548 0
126 -717 0
548 -717 0
-126 -548 717 0
c gate 718 -98 -127 0
-98 -718 0
-127 -718 0
98 127 718 0
c gate 719 -96 127 0
-96 -719 0
127 -719 0
96 -127 719 0
c gate 720 -126 -719 0
-126 -720 0
-719 -720 0
126 719 720 0
c gate 721 -718 720 0
-718 -721 0
720 -721 0
718 -720 721 0
c gate 722 129 -721 0
129 -722 0
-721 -722 0
-129 721 722 0
c gate 723 -717 722 0
-717 -723 0
722 -723 0
717 -722 723 0
c gate 724 -716 -723 0
-716 -724 0
-723 -724 0
716 723 724 0
c gate 725 128 -724 0
128 -725 0
-724 -725 0
-128 724 725 0
c gate 726 126 560 0
126 -726 0
560 -726 0
-126 -560 726 0
c gate 727 -102 -127 0
-102 -727 0
-127 -727 0
102 127 727 0
c gate 728 -100 127 0
-100 -728 0
127 -728 0
100 -127 728 0
c gate 729 -126 -728 0
-126 -729 0
-728 -729 0
126 728 729 0
c gate 730 -727 729 0
-727 -730 0
729 -730 0
727 -729 730 0
c gate 731 129 -730 0
129 -731 0
-730 -731 0
-129 730 731 0
c gate 732 -726 731 0
-726 -732 0
731 -732 0
726 -731 732 0
c gate 733 -107 127 0
-107 -733 0
127 -733 0
107 -127 733 0
c gate 734 -109 -127 0
-109 -734 0
-127 -734 0
109 127 734 0
c gate 735 126 -734 0
126 -735 0
-734 -735 0
-126 734 735 0
c gate 736 -733 735 0
-733 -736 0
735 -736 0
733 -735 736 0
c gate 737 -126 686 0
-126 -737 0
686 -737 0
126 -686 737 0
c gate 738 -129 -737 0
-129 -738 0
-737 -738 0
129 737 738 0
c gate 739 -736 738 0
-736 -739 0
738 -739 0
736 -738 739 0
c gate 740 -732 -739 0
-732 -740 0
-739 -740 0
732 739 740 0
c gate 741 -128 -740 0
-128 -741 0
-740 -741 0
128 740 741 0
c gate 742 -131 -741 0
-131 -742 0
-741 -742 0
131 741 742 0
c gate 743 -725 742 0
-725 -743 0
742 -743 0
725 -742 743 0
c gate 744 -72 127 0
-72 -744 0
127 -744 0
72 -127 744 0
c gate 745 -74 -127 0
-74 -745 0
-127 -745 0
74 127 745 0
c gate 746 126 -745 0
126 -746 0
-745 -746 0
-126 745 746 0
c gate 747 -744 746 0
-744 -747 0
746 -747 0
744 -746 747 0
c gate 748 -126 494 0
-126 -748 0
494 -748 0
126 -494 748 0
c gate 749 -129 -748 0
-129 -749 0
-748 -749 0
129 748 749 0
c gate 750 -747 749 0
-747 -750 0
749 -750 0
747 -749 750 0
c gate 751 126 318 0
126 -751 0
318 -751 0
-126 -318 751 0
c gate 752 -126 484 0
-126 -752 0
484 -752 0
126 -484 752 0
c gate 753 129 -752 0
129 -753 0
-752 -753 0
-129 752 753 0
c gate 754 -751 753 0
-751 -754 0
753 -754 0
751 -753 754 0
c gate 755 -750 -754 0
-750 -755 0
-754 -755 0
750 754 755 0
c gate 756 128 -755 0
128 -756 0
-755 -756 0
-128 755 756 0
c gate 757 -68 127 0
-68 -757 0
127 -757 0
68 -127 757 0
c gate 758 -70 -127 0
-70 -758 0
-127 -758 0
70 127 758 0
c gate 759 126 -758 0
126 -759 0
-758 -759 0
-126 758 759 0
c gate 760 -757 759 0
-757 -760 0
759 -760 0
757 -759 760 0
c gate 761 -126 516 0
-126 -761 0
516 -761 0
126 -516 761 0
c gate 762 129 -761 0
129 -762 0
-761 -762 0
-129 761 762 0
c gate 763 -760 762 0
-760 -763 0
762 -763 0
760 -762 763 0
c gate 764 -76 127 0
-76 -764 0
127 -764 0
76 -127 764 0
c gate 765 -78 -127 0
-78 -765 0
-127 -765 0
78 127 765 0
c gate 766 126 -765 0
126 -766 0
-765 -766 0
-126 765 766 0
c gate 767 -764 766 0
-764 -767 0
766 -767 0
764 -766 767 0
c gate 768 -126 506 0
-126 -768 0
506 -768 0
126 -506 768 0
c gate 769 -129 -768 0
-129 -769 0
-768 -769 0
129 768 769 0
c gate 770 -767 769 0
-767 -770 0
769 -770 0
767 -769 770 0
c gate 771 -763 -770 0
-763 -771 0
-770 -771 0
763 770 771 0
c gate 772 -128 -771 0
-128 -772 0
-771 -772 0
128 771 772 0
c gate 773 131 -772 0
131 -773 0
-772 -773 0
-131 772 773 0
c gate 774 -756 773 0
-756 -774 0
773 -774 0
756 -773 774 0
c gate 775 130 -774 0
130 -775 0
-774 -775 0
-130 774 775 0
c gate 776 -743 775 0
-743 -776 0
775 -776 0
743 -775 776 0
c gate 777 132 776 0
132 -777 0
776 -777 0
-132 -776 777 0
c gate 778 -132 303 0
-132 -778 0
303 -778 0
132 -303 778 0
c gate 779 -777 -778 0
-777 -779 0
-778 -779 0
777 778 779 0
c gate 780 -709 779 0
-709 -780 0
779 -780 0
709 -779 780 0
c gate 781 -658 780 0
-658 -781 0
780 -781 0
658 -780 781 0
c gate 782 -581 781 0
-581 -782 0
781 -782 0
581 -781 782 0
c gate 783 -531 -782 0
-531 -783 0
-782 -783 0
531 782 783 0
c gate 784 -530 783 0
-530 -784 0
783 -784 0
530 -783 784 0
c gate 785 132 703 0
132 -785 0
703 -785 0
-132 -703 785 0
c gate 786 784 -785 0
784 -786 0
-785 -786 0
-784 785 786 0
c gate 787 -453 -786 0
-453 -787 0
-786 -787 0
453 786 787 0
c gate 788 388 -787 0
388 -788 0
-787 -788 0
-388 787 788 0
c gate 789 -132 776 0
-132 -789 0
776 -789 0
132 -776 789 0
c gate 790 132 303 0
132 -790 0
303 -790 0
-132 -303 790 0
c gate 791 -789 -790 0
-789 -791 0
-790 -791 0
789 790 791 0
c gate 792 -132 657 0
-132 -792 0
657 -792 0
132 -657 792 0
c gate 793 791 -792 0
791 -793 0
-792 -793 0
-791 792 793 0
c gate 794 -387 -793 0
-387 -794 0
-793 -794 0
387 793 794 0
c gate 795 787 -794 0
787 -795 0
-794 -795 0
-787 794 795 0
c gate 796 -788 -795 0
-788 -796 0
-795 -796 0
788 795 796 0
c gate 797 -132 580 0
-132 -797 0
580 -797 0
132 -580 797 0
c gate 798 -796 -797 0
-796 -798 0
-797 -798 0
796 797 798 0
c gate 799 -788 -798 0
-788 -799 0
-798 -799 0
788 798 799 0
c PO
799 0
